MX2                                  
1.0
       41.0699996948         0.0000000000         0.0000000000
        0.0000000000        37.0900001526         0.0000000000
        0.0000000000         0.0000000000        16.2420005798
   M    X    
   45   126   
Direct
     0.500000000         0.169055119         0.513205588
     0.465942830         0.236724958         0.505191505
     0.424801618         0.310561538         0.497235447
     0.386393636         0.383612365         0.492292762
     0.348108590         0.456876963         0.490866005
     0.309851319         0.530459762         0.494050771
     0.271926045         0.603249133         0.501193821
     0.234361082         0.679383099         0.511333108
     0.198261410         0.746090531         0.521693766
     0.534057140         0.236724958         0.505191505
     0.500000000         0.308180600         0.497773528
     0.461059630         0.382315695         0.492197275
     0.422690481         0.455775172         0.489660859
     0.384412318         0.529067934         0.490570039
     0.346127868         0.602636993         0.494853735
     0.307401180         0.676712632         0.502324045
     0.268447846         0.744927704         0.511536717
     0.575198352         0.310561538         0.497235447
     0.538940430         0.382315695         0.492197275
     0.500000000         0.455941647         0.488963217
     0.461511135         0.529567599         0.488364100
     0.423163295         0.603269875         0.490573138
     0.384966403         0.677458286         0.495509595
     0.346174985         0.747839212         0.502099693
     0.613606393         0.383612365         0.492292762
     0.577309489         0.455775172         0.489660859
     0.538488865         0.529567599         0.488364100
     0.500000000         0.603310704         0.489020109
     0.461545318         0.677442193         0.491698682
     0.423654914         0.748566329         0.495504022
     0.651891410         0.456876963         0.490866005
     0.615587652         0.529067934         0.490570039
     0.576836646         0.603269875         0.490573138
     0.538454711         0.677442193         0.491698682
     0.500000000         0.748008192         0.493086368
     0.690148652         0.530459762         0.494050771
     0.653872132         0.602636993         0.494853735
     0.615033567         0.677458286         0.495509595
     0.576345026         0.748566329         0.495504022
     0.728074014         0.603249133         0.501193821
     0.692598760         0.676712632         0.502324045
     0.653825045         0.747839212         0.502099693
     0.765638947         0.679383099         0.511333108
     0.731552184         0.744927704         0.511536717
     0.801738560         0.746090531         0.521693766
     0.546284854         0.138352662         0.455050021
     0.500000000         0.209163174         0.401363999
     0.460784376         0.282885015         0.401379496
     0.422502905         0.356795907         0.394907117
     0.383972973         0.430670828         0.391911805
     0.345206231         0.504775584         0.392906427
     0.306794465         0.578772962         0.397531211
     0.267588317         0.651955664         0.406288803
     0.229262590         0.726438522         0.408923477
     0.581867278         0.205178320         0.448433518
     0.539215624         0.282885015         0.401379496
     0.500000000         0.356579512         0.398042649
     0.461351216         0.430811316         0.393508375
     0.422700167         0.504925668         0.392648369
     0.384043187         0.578979313         0.395337164
     0.345191568         0.653159618         0.401557416
     0.306617230         0.726990819         0.406542808
     0.621669948         0.279397547         0.438156039
     0.577497065         0.356795907         0.394907117
     0.538648725         0.430811316         0.393508375
     0.500000000         0.504904985         0.391612828
     0.461269945         0.579072773         0.392350972
     0.422441632         0.653159142         0.395784289
     0.383856952         0.727738738         0.399265409
     0.660945773         0.353632867         0.432924151
     0.616026998         0.430670828         0.391911805
     0.577299833         0.504925668         0.392648369
     0.538730025         0.579072773         0.392350972
     0.500000000         0.653093457         0.394116700
     0.461209893         0.727184176         0.394363046
     0.698765278         0.426452547         0.430937231
     0.654793799         0.504775584         0.392906427
     0.615956783         0.578979313         0.395337164
     0.577558279         0.653159142         0.395784289
     0.538790107         0.727184176         0.394363046
     0.737734914         0.501021922         0.434544355
     0.693205476         0.578772962         0.397531211
     0.654808462         0.653159618         0.401557416
     0.616143048         0.727738738         0.399265409
     0.775511503         0.573482156         0.442950696
     0.732411683         0.651955664         0.406288803
     0.693382740         0.726990819         0.406542808
     0.814775944         0.650043845         0.455556989
     0.770737469         0.726438522         0.408923477
     0.849173427         0.716459632         0.465038151
     0.453715086         0.138352662         0.455050021
     0.418132722         0.205178320         0.448433518
     0.378330052         0.279397547         0.438156039
     0.339054257         0.353632867         0.432924151
     0.301234692         0.426452547         0.430937231
     0.262265116         0.501021922         0.434544355
     0.224488571         0.573482156         0.442950696
     0.185224012         0.650043845         0.455556989
     0.150826618         0.716459632         0.465038151
     0.195973217         0.805605650         0.464276671
     0.268239707         0.806582391         0.455303878
     0.342164844         0.807935357         0.444145113
     0.425252050         0.808426976         0.435419321
     0.500000000         0.808540881         0.433830231
     0.574747920         0.808426976         0.435419321
     0.657835186         0.807935357         0.444145113
     0.731760383         0.806582391         0.455303878
     0.804026842         0.805605650         0.464276671
     0.546368420         0.141272962         0.578753948
     0.500000000         0.213965818         0.614865422
     0.460716248         0.286687344         0.598540902
     0.422533631         0.359304667         0.592632055
     0.384434223         0.431622952         0.589559972
     0.346530914         0.504039943         0.590409756
     0.309297174         0.576794922         0.595534503
     0.271173418         0.649281144         0.603283346
     0.233963996         0.723301888         0.621467650
     0.581793725         0.207869262         0.569270790
     0.539283752         0.286687344         0.598540902
     0.500000000         0.359213412         0.589645445
     0.461591899         0.432165027         0.586589456
     0.423495859         0.504980445         0.585939407
     0.385621905         0.577903330         0.588213682
     0.347741365         0.651236415         0.593144357
     0.310272574         0.724605083         0.603874326
     0.621839166         0.281783611         0.561159968
     0.577466309         0.359304667         0.592632055
     0.538408160         0.432165027         0.586589456
     0.500000000         0.505182981         0.584995985
     0.461863607         0.578387141         0.585783184
     0.423907012         0.651728094         0.588924706
     0.386355370         0.726113439         0.596052825
     0.661086261         0.354960352         0.554945827
     0.615565777         0.431622952         0.589559972
     0.576504111         0.504980445         0.585939407
     0.538136363         0.578387141         0.585783184
     0.500000000         0.651880682         0.587020397
     0.462167114         0.725928128         0.592169523
     0.698408246         0.426499099         0.553308547
     0.653469086         0.504039943         0.590409756
     0.614378035         0.577903330         0.588213682
     0.576092958         0.651728094         0.588924706
     0.537832856         0.725928128         0.592169523
     0.736542225         0.499603778         0.556515932
     0.690702796         0.576794922         0.595534503
     0.652258635         0.651236415         0.593144357
     0.613644600         0.726113439         0.596052825
     0.773155093         0.571481586         0.565597773
     0.728826642         0.649281144         0.603283346
     0.689727366         0.724605083         0.603874326
     0.812021315         0.648355067         0.576323807
     0.766036034         0.723301888         0.621467650
     0.846093059         0.714523137         0.588137567
     0.453631610         0.141272962         0.578753948
     0.418206245         0.207869262         0.569270790
     0.378160805         0.281783611         0.561159968
     0.338913739         0.354960352         0.554945827
     0.301591754         0.426499099         0.553308547
     0.263457775         0.499603778         0.556515932
     0.226844922         0.571481586         0.565597773
     0.187978715         0.648355067         0.576323807
     0.153906986         0.714523137         0.588137567
     0.199140847         0.803658247         0.588875175
     0.270901829         0.804910243         0.576180756
     0.344499081         0.806628048         0.567192078
     0.426569253         0.807843328         0.558382332
     0.500000000         0.808003724         0.555546343
     0.573430657         0.807843328         0.558382332
     0.655500948         0.806628048         0.567192078
     0.729098201         0.804910243         0.576180756
     0.800859213         0.803658247         0.588875175
