MXY                                 
1.0
       44.2999992371         0.0000000000         0.0000000000
        0.0000000000        39.9729995728         0.0000000000
        0.0000000000         0.0000000000        16.2420005798
   M    X    Y        
   55   75   75
Direct
     0.500000000         0.147271276         0.519880235
     0.468471885         0.209896311         0.510465264
     0.430191159         0.278381735         0.501315653
     0.394798517         0.346572608         0.494925290
     0.359197825         0.413551241         0.491513044
     0.322945058         0.483154118         0.491530150
     0.288378090         0.550769448         0.495354801
     0.252817780         0.618854523         0.502625406
     0.218493953         0.689791262         0.513052285
     0.185308546         0.751363695         0.523829937
     0.531528175         0.209896311         0.510465264
     0.500000000         0.276286930         0.501837909
     0.463963598         0.344933122         0.494952798
     0.428267211         0.413325310         0.490689546
     0.392422825         0.481206357         0.489292294
     0.357299358         0.549550772         0.491073191
     0.321704239         0.617960036         0.496059358
     0.286134303         0.686858118         0.504215240
     0.250038177         0.750303984         0.514432192
     0.569808841         0.278381735         0.501315653
     0.536036432         0.344933122         0.494952798
     0.500000000         0.413426131         0.490278453
     0.464254647         0.481670439         0.487893254
     0.428691626         0.549929678         0.488054335
     0.393244922         0.618360698         0.490874797
     0.357758045         0.687167406         0.496608406
     0.322633624         0.752782643         0.504534900
     0.605201483         0.346572608         0.494925290
     0.571732819         0.413325310         0.490689546
     0.535745382         0.481670439         0.487893254
     0.500000000         0.550073683         0.486903995
     0.464432567         0.618589640         0.488049418
     0.429020405         0.687292755         0.491475552
     0.393538356         0.752777576         0.496647179
     0.640802145         0.413551241         0.491513044
     0.607577205         0.481206357         0.489292294
     0.571308374         0.549929678         0.488054335
     0.535567462         0.618589640         0.488049418
     0.500000000         0.687736571         0.489645213
     0.463708490         0.753503859         0.492244512
     0.677054942         0.483154118         0.491530150
     0.642700613         0.549550772         0.491073191
     0.606755137         0.618360698         0.490874797
     0.570979595         0.687292755         0.491475552
     0.536291540         0.753503859         0.492244512
     0.711621881         0.550769448         0.495354801
     0.678295732         0.617960036         0.496059358
     0.642241955         0.687167406         0.496608406
     0.606461704         0.752777576         0.496647179
     0.747182250         0.618854523         0.502625406
     0.713865697         0.686858118         0.504215240
     0.677366316         0.752782643         0.504534900
     0.781506002         0.689791262         0.513052285
     0.749961853         0.750303984         0.514432192
     0.814691365         0.751363695         0.523829937
     0.543190062         0.118804708         0.462510228
     0.500000000         0.184056833         0.407045215
     0.463647842         0.252474040         0.405992389
     0.428153962         0.320985824         0.398296773
     0.392778128         0.389639884         0.393139184
     0.355866104         0.457815886         0.392475516
     0.321026266         0.527439594         0.393384814
     0.285025865         0.595746994         0.399190873
     0.249312788         0.664190233         0.408106923
     0.214052469         0.733376384         0.410630047
     0.575804412         0.180308655         0.454262912
     0.536352158         0.252474040         0.405992389
     0.500000000         0.320788413         0.401078880
     0.464239836         0.389665335         0.395430833
     0.428232014         0.458511680         0.392560214
     0.392551631         0.527001500         0.392744362
     0.356725693         0.595994830         0.396132976
     0.320780545         0.664822698         0.402772874
     0.285532445         0.733957171         0.409309238
     0.612503886         0.249051690         0.442523181
     0.571846068         0.320985824         0.398296773
     0.535760224         0.389665335         0.395430833
     0.500000000         0.458407551         0.391847461
     0.464151561         0.527149379         0.390719593
     0.428306162         0.595923305         0.392159790
     0.392428249         0.664704084         0.396439880
     0.356675565         0.733689964         0.400455922
     0.649868369         0.319139779         0.436496705
     0.607221901         0.389639884         0.393139184
     0.571767986         0.458511680         0.392560214
     0.535848439         0.527149379         0.390719593
     0.500000000         0.595979273         0.390748292
     0.464258343         0.664846539         0.392950267
     0.428043067         0.733314335         0.394218951
     0.682534158         0.381773502         0.432195902
     0.644133866         0.457815886         0.392475516
     0.607448399         0.527001500         0.392744362
     0.571693838         0.595923305         0.392159790
     0.535741687         0.664846539         0.392950267
     0.500000000         0.734595954         0.393118739
     0.722740889         0.459011793         0.432208538
     0.678973734         0.527439594         0.393384814
     0.643274307         0.595994830         0.396132976
     0.607571781         0.664704084         0.396439880
     0.571956992         0.733314335         0.394218951
     0.755266845         0.521596193         0.436459124
     0.714974105         0.595746994         0.399190873
     0.679219425         0.664822698         0.402772874
     0.643324375         0.733689964         0.400455922
     0.791630924         0.592927694         0.443619013
     0.750687122         0.664190233         0.408106923
     0.714467525         0.733957171         0.409309238
     0.826711237         0.662178576         0.456126571
     0.785947621         0.733376384         0.410630047
     0.858468950         0.724435210         0.465273589
     0.456809968         0.118804708         0.462510228
     0.424195647         0.180308655         0.454262912
     0.387496084         0.249051690         0.442523181
     0.350131631         0.319139779         0.436496705
     0.317465782         0.381773502         0.432195902
     0.277259052         0.459011793         0.432208538
     0.244733140         0.521596193         0.436459124
     0.208369121         0.592927694         0.443619013
     0.173288718         0.662178576         0.456126571
     0.141531065         0.724435210         0.465273589
     0.184800372         0.807318032         0.468008876
     0.249050736         0.807910025         0.459822536
     0.320853382         0.808661520         0.447062284
     0.394195527         0.809422612         0.438534886
     0.459571481         0.809467733         0.433129936
     0.540428579         0.809467733         0.433129936
     0.605804503         0.809422612         0.438534886
     0.679146588         0.808661520         0.447062284
     0.750949264         0.807910025         0.459822536
     0.815199614         0.807318032         0.468008876
     0.543228269         0.122110657         0.586036146
     0.500000000         0.189290345         0.620749950
     0.463565677         0.256576508         0.602840245
     0.428183466         0.323992789         0.595684409
     0.393074423         0.391419947         0.591363966
     0.356682241         0.458340406         0.588806331
     0.322592676         0.526632130         0.591554999
     0.287471920         0.593891740         0.596643031
     0.252557814         0.661487937         0.604845881
     0.218118176         0.729946136         0.624213398
     0.575852633         0.183221638         0.574884176
     0.536434352         0.256576508         0.602840245
     0.500000000         0.323839545         0.592963398
     0.464356989         0.391688168         0.588107586
     0.428685516         0.459446460         0.585605383
     0.393586099         0.526816487         0.585804522
     0.358533710         0.594908178         0.588789463
     0.323429108         0.662849426         0.594661176
     0.289065301         0.731333077         0.606122673
     0.612722337         0.251575530         0.566035211
     0.571816564         0.323992789         0.595684409
     0.535643041         0.391688168         0.588107586
     0.500000000         0.459494472         0.585198164
     0.464554757         0.527334392         0.584072649
     0.429320902         0.595281005         0.585446656
     0.394226491         0.663297772         0.589098155
     0.359526396         0.731759369         0.597946942
     0.649858177         0.320804119         0.557609081
     0.606925607         0.391419947         0.591363966
     0.571314454         0.459446460         0.585605383
     0.535445273         0.527334392         0.584072649
     0.500000000         0.595466077         0.584071934
     0.464924425         0.663752437         0.586002588
     0.429648638         0.731945515         0.592334390
     0.682340682         0.382619143         0.554305732
     0.643317759         0.458340406         0.588806331
     0.606413960         0.526816487         0.585804522
     0.570679128         0.595281005         0.585446656
     0.535075605         0.663752437         0.586002588
     0.500000000         0.733416736         0.589336514
     0.722066343         0.458816618         0.554257870
     0.677407324         0.526632130         0.591554999
     0.641466260         0.594908178         0.588789463
     0.605773509         0.663297772         0.589098155
     0.570351422         0.731945515         0.592334390
     0.754090428         0.520604074         0.557635725
     0.712528110         0.593891740         0.596643031
     0.676570833         0.662849426         0.594661176
     0.640473545         0.731759369         0.597946942
     0.789638758         0.591109037         0.567091823
     0.747442126         0.661487937         0.604845881
     0.710934699         0.731333077         0.606122673
     0.824464738         0.660335839         0.576734424
     0.781881809         0.729946136         0.624213398
     0.856095135         0.722328603         0.588846922
     0.456771761         0.122110657         0.586036146
     0.424147338         0.183221638         0.574884176
     0.387277663         0.251575530         0.566035211
     0.350141793         0.320804119         0.557609081
     0.317659348         0.382619143         0.554305732
     0.277933657         0.458816618         0.554257870
     0.245909572         0.520604074         0.557635725
     0.210361317         0.591109037         0.567091823
     0.175535128         0.660335839         0.576734424
     0.143904850         0.722328603         0.588846922
     0.187254056         0.805127382         0.591507077
     0.251503706         0.805853724         0.580351651
     0.323370218         0.807105124         0.570457995
     0.395852983         0.808475316         0.559654117
     0.460306793         0.808805466         0.555240989
     0.539693296         0.808805466         0.555240989
     0.604147017         0.808475316         0.559654117
     0.676629782         0.807105124         0.570457995
     0.748496294         0.805853724         0.580351651
     0.812745869         0.805127382         0.591507077
