MXY                                  
   1.00000000000000     
    24.9200000762999991    0.0000000000000000    0.0000000000000000
     0.0000000000000000   23.1889991759999994    0.0000000000000000
     0.0000000000000000    0.0000000000000000   15.2419996262000002
   M    X    Y     
   10   15   15
Direct
   0.3092241750676702   0.3804935405411250   0.4857522035691555
   0.4377331304556458   0.3846213183014227   0.5040571250748530
   0.3752115554668032   0.4999679028078871   0.5045098043286371
   0.5622668700921168   0.3846213183014227   0.5040571250748530
   0.4999999853862346   0.5003484259165036   0.5039760344956042
   0.4373830724595621   0.6153803372435884   0.5040313257888072
   0.6907758701831352   0.3804935405411250   0.4857522035691555
   0.6247884450809522   0.4999679028078871   0.5045098043286371
   0.5626169280881933   0.6153803372435884   0.5040313257888072
   0.4999999853862346   0.7340129110842963   0.4766625115732328
   0.2252726347465247   0.3615060954796613   0.4228688792673787
   0.3756042195288954   0.3376569385247905   0.4079989710758534
   0.3001063487828888   0.4723244785207070   0.4201725317970306
   0.4999999853862346   0.3443261498830171   0.4026764133898337
   0.4364546961396892   0.4614648979031133   0.3999029917015040
   0.3736396205579824   0.5786583330801633   0.4034105072092441
   0.6243957959466310   0.3376569385247905   0.4079989710758534
   0.5635453044080591   0.4614648979031133   0.3999029917015040
   0.4999999853862346   0.5784583993876965   0.3998998876038298
   0.4244652763252816   0.6984856381226719   0.4118251948928487
   0.7747273546455251   0.3615060954796613   0.4228688792673787
   0.6998936666926305   0.4723244785207070   0.4201725317970306
   0.6263603948774126   0.5786583330801633   0.4034105072092441
   0.5755347391502377   0.6984856381226719   0.4118251948928487
   0.4999999853862346   0.8198962795983693   0.3932184545738491
   0.2483444184084527   0.3091932260827762   0.5252708297839787
   0.3634364146507195   0.3592813437250374   0.6150645387249399
   0.3207371111637164   0.4385442619660416   0.6122137270027671
   0.4999999853862346   0.3436022711077003   0.6048788933926250
   0.4387694957490311   0.4622113905957018   0.6078862009193088
   0.3745685651018212   0.5778578013086247   0.6070545684264163
   0.6365635858970359   0.3592813437250374   0.6150645387249399
   0.5612305047987242   0.4622113905957018   0.6078862009193088
   0.4999999853862346   0.5764503906252336   0.6081290038377946
   0.4576384449291830   0.6987972857926785   0.6091550602373818
   0.7516555672516559   0.3091932260827762   0.5252708297839787
   0.6792629042716715   0.4385442619660416   0.6122137270027671
   0.6254314503736980   0.5778578013086247   0.6070545684264163
   0.5423615556185722   0.6987972857926785   0.6091550602373818
   0.4999999853862346   0.8300155924052001   0.5282098815330163
