MXY                                 
   1.00000000000000     
    44.2999992371000033    0.0000000000000000    0.0000000000000000
     0.0000000000000000   39.9729995727999992    0.0000000000000000
     0.0000000000000000    0.0000000000000000   15.2419996262000002
   M    X    Y  
   55   66   66
Direct
  0.1939733382356517  0.1788055238190228  0.4474240043193593
  0.2655625819620003  0.1786264914835033  0.4884968016808270
  0.2312107282360039  0.2452885380411817  0.4950252329744376
  0.3357468799025813  0.1770916568763773  0.5098829764520281
  0.3013680795735061  0.2456665775149680  0.5168238646031470
  0.2648585053275149  0.3134142799908195  0.5176580864893929
  0.4043198220734890  0.1757388752402765  0.5374834062025058
  0.3720098625698494  0.2450599849070401  0.5324259723238484
  0.3362418084417049  0.3136663030935523  0.5366861742602804
  0.2985506477933745  0.3793799667296905  0.5515544664665162
  0.4800049298882740  0.1759450280792702  0.5440508929731444
  0.4428333439195762  0.2439330949238662  0.5421659900994716
  0.4070237802485308  0.3131871908182960  0.5438746513215820
  0.3707846136438216  0.3821366584316901  0.5483138637666499
  0.3363627099917411  0.4515038949808739  0.5596513324824111
  0.5477603147411189  0.1759450280792702  0.5440508929731444
  0.5138826074049874  0.2445623418498173  0.5454589951542094
  0.4783538915354565  0.3130546477370938  0.5472470062090401
  0.4425491528426063  0.3818459950523715  0.5491612460677794
  0.4067702836200516  0.4501998788360845  0.5505030076068301
  0.3700563361268333  0.5170532090465090  0.5467684316433797
  0.6234454523527411  0.1757388752402765  0.5374834062025058
  0.5849319305292344  0.2439330949238662  0.5421659900994716
  0.5494113530939365  0.3130546477370938  0.5472470062090401
  0.5138826074049874  0.3817117820146902  0.5494701847877479
  0.4780511280186545  0.4502152326788139  0.5487908079950656
  0.4417551878368638  0.5188994206584518  0.5449150621186468
  0.4077353470829554  0.5896631556561323  0.5392434199076733
  0.6920183349299679  0.1770916568763773  0.5098829764520281
  0.6557554118563949  0.2450599849070401  0.5324259723238484
  0.6207414941776989  0.3131871908182960  0.5438746513215820
  0.5852161215836302  0.3818459950523715  0.5491612460677794
  0.5497141166333126  0.4502152326788139  0.5487908079950656
  0.5138826074049874  0.5186347209695404  0.5437253117588625
  0.4781043673698061  0.5862396034772430  0.5322324789613221
  0.4429349018391534  0.6548394358025639  0.5090982412885625
  0.7622026626673923  0.1786264914835033  0.4884968016808270
  0.7263971799543130  0.2456665775149680  0.5168238646031470
  0.6915234362102548  0.3136663030935523  0.5366861742602804
  0.6569806906018260  0.3821366584316901  0.5483138637666499
  0.6209949908061857  0.4501998788360845  0.5505030076068301
  0.5860100866119462  0.5188994206584518  0.5449150621186468
  0.5496608772595866  0.5862396034772430  0.5322324789613221
  0.5138826074049874  0.6536888156275413  0.5129517009454212
  0.4790104712165503  0.7210110082903418  0.4850091771642051
  0.8337919361905776  0.1788055238190228  0.4474240043193593
  0.7965545014949704  0.2452885380411817  0.4950252329744376
  0.7629067393244445  0.3134142799908195  0.5176580864893929
  0.7292145819601729  0.3793799667296905  0.5515544664665162
  0.6914025048408143  0.4515038949808739  0.5596513324824111
  0.6577089681188140  0.5170532090465090  0.5467684316433797
  0.6200298975464376  0.5896631556561323  0.5392434199076733
  0.5848303726096501  0.6548394358025639  0.5090982412885625
  0.5487547734128427  0.7210110082903418  0.4850091771642051
  0.5138826074049874  0.7877655963433707  0.4316217094126294
  0.1642477871735087  0.1422657694004804  0.3640556939174199
  0.2352211896650043  0.1497281570982869  0.3859871269763939
  0.1966772124134904  0.2294081714930518  0.3814444768942281
  0.3039219351666931  0.1570774160786037  0.3956848499391464
  0.2697906191369607  0.2266090167258414  0.3971829721085790
  0.2329096264711799  0.2940247268291541  0.4044660702877727
  0.3732015863302053  0.1553325558056527  0.4185791031089034
  0.3392387993963550  0.2255344140101538  0.4177177590861403
  0.3038482117613788  0.2934656691708613  0.4221098686481668
  0.2655436897227912  0.3615368522928827  0.4326292427115857
  0.4428116557421513  0.1373797079919880  0.4816326724718662
  0.4089921992514816  0.2211522982657625  0.4343152939844901
  0.3731345299852171  0.2923948867971087  0.4345989168576538
  0.3348053131931423  0.3622689051011215  0.4426637716966543
  0.2855408918753360  0.4367368583189485  0.5089988921039788
  0.5138826074049874  0.1530283681958193  0.4405912336425109
  0.4787246126084900  0.2213853393949461  0.4409371263387667
  0.4433296214773533  0.2907881092474652  0.4422140459400512
  0.4069494716475306  0.3600933186438288  0.4449862346835061
  0.3694919054792699  0.4287312021776220  0.4495242484010404
  0.3339833445195302  0.4961672330407572  0.4524017912376968
  0.5849536187066523  0.1373797079919880  0.4816326724718662
  0.5490406320209029  0.2213853393949461  0.4409371263387667
  0.5138826074049874  0.2906135773949965  0.4436666552881650
  0.4782776342967982  0.3592538802434339  0.4460401385919981
  0.4421730469592069  0.4274309130284766  0.4465176219632764
  0.4060775575426848  0.4951871003616070  0.4449099201063216
  0.3591258703464883  0.5716673231752805  0.4807399797711502
  0.6545637476897126  0.1553325558056527  0.4185791031089034
  0.6187730453779107  0.2211522982657625  0.4343152939844901
  0.5844356529488762  0.2907881092474652  0.4422140459400512
  0.5494876103325946  0.3592538802434339  0.4460401385919981
  0.5138826074049874  0.4272162951117248  0.4464333337707482
  0.4776945692659026  0.4949067823450356  0.4437133974892951
  0.4405784626458450  0.5623800861579629  0.4357504094650053
  0.4071754044365308  0.6295336926880437  0.4192803241273258
  0.7238433094626996  0.1570774160786037  0.3956848499391464
  0.6885264303346190  0.2255344140101538  0.4177177590861403
  0.6546307444410049  0.2923948867971087  0.4345989168576538
  0.6208157730044358  0.3600933186438288  0.4449862346835061
  0.5855922274895966  0.4274309130284766  0.4465176219632764
  0.5500706753634891  0.4949067823450356  0.4437133974892951
  0.5138826074049874  0.5610775542759779  0.4332830477214726
  0.4786884088279292  0.6269333280546306  0.4164653353857235
  0.4427864363992002  0.6948304508194532  0.3936615207302218
  0.7925440624135978  0.1497281570982869  0.3859871269763939
  0.7579746403908576  0.2266090167258414  0.3971829721085790
  0.7239170030711697  0.2934656691708613  0.4221098686481668
  0.6929599463346693  0.3622689051011215  0.4426637716966543
  0.6582733987663785  0.4287312021776220  0.4495242484010404
  0.6216877169061253  0.4951871003616070  0.4449099201063216
  0.5871868117803989  0.5623800861579629  0.4357504094650053
  0.5490768358014563  0.6269333280546306  0.4164653353857235
  0.5138826074049874  0.6928509283843824  0.3919241152702744
  0.4718268952576735  0.7633799255986130  0.3746870988772674
  0.8635174984265386  0.1422657694004804  0.3640556939174199
  0.8310880173174836  0.2294081714930518  0.3814444768942281
  0.7948556256074226  0.2940247268291541  0.4044660702877727
  0.7622215400081757  0.3615368522928827  0.4326292427115857
  0.7422243229572123  0.4367368583189485  0.5089988921039788
  0.6937818703130181  0.4961672330407572  0.4524017912376968
  0.6686394041023227  0.5716673231752805  0.4807399797711502
  0.6205898699896982  0.6295336926880437  0.4192803241273258
  0.5849788380270292  0.6948304508194532  0.3936615207302218
  0.5559383493717194  0.7633799255986130  0.3746870988772674
  0.5138826074049874  0.8323202786926447  0.3289118925411600
  0.1432463940717971  0.1661773644836986  0.4670447876906335
  0.2188906431889156  0.1632541294180084  0.5787300439379895
  0.1950429488923448  0.2091297892617023  0.5865953468283448
  0.2963381910611480  0.1505109028300196  0.5923355084013013
  0.2634607626096286  0.2199942338492713  0.6037864149443362
  0.2251543545661452  0.2869606191076947  0.6019247234706849
  0.3682618224411836  0.1520161348725005  0.6236358790171802
  0.3338134030895116  0.2196327197204369  0.6233005475545861
  0.2977795936702098  0.2885982833247139  0.6273240631898785
  0.2625959434251780  0.3552793506221874  0.6368198207298051
  0.4415545390661058  0.1417722143650512  0.6166231051113666
  0.4056549807694663  0.2209589127645412  0.6402046827605408
  0.3702413689084770  0.2887618742520908  0.6410723762836829
  0.3355264169983017  0.3566253238344228  0.6485323274921342
  0.2928883327049050  0.4298998183951084  0.6413213826052471
  0.5138826074049874  0.1539552237318006  0.6486617933485922
  0.4776916263383265  0.2211843141065979  0.6474044567086359
  0.4420642286594081  0.2893093246751749  0.6471707014331742
  0.4066107122317024  0.3579213590520057  0.6498544584461498
  0.3721291270034582  0.4260963475788638  0.6558732007211455
  0.3366609603563605  0.4952190200842189  0.6584305045595314
  0.5862107353601232  0.1417722143650512  0.6166231051113666
  0.5500736182910665  0.2211843141065979  0.6474044567086359
  0.5138826074049874  0.2897306085514008  0.6500439055526790
  0.4781354132591178  0.3583914925168011  0.6517494713301506
  0.4427043582676986  0.4274429813122412  0.6528242159126337
  0.4066047102347550  0.4970608879454781  0.6511811860194422
  0.3617200352466691  0.5715709956318872  0.6159108966500064
  0.6595034520076205  0.1520161348725005  0.6236358790171802
  0.6221102638599196  0.2209589127645412  0.6402046827605408
  0.5857010457668286  0.2893093246751749  0.6471707014331742
  0.5496298313702745  0.3583914925168011  0.6517494713301506
  0.5138826074049874  0.4276857025114470  0.6520348522433274
  0.4780946905645427  0.4970974440042719  0.6485506789726232
  0.4427991565661648  0.5663837409333835  0.6417132786051409
  0.4071397948991836  0.6366264035172821  0.6234889965294041
  0.7314270535908183  0.1505109028300196  0.5923355084013013
  0.6939518117430371  0.2196327197204369  0.6233005475545861
  0.6575239055177524  0.2887618742520908  0.6410723762836829
  0.6211545621945268  0.3579213590520057  0.6498544584461498
  0.5850609161811118  0.4274429813122412  0.6528242159126337
  0.5496705540648495  0.4970974440042719  0.6485506789726232
  0.5138826074049874  0.5665731356458906  0.6395264246379979
  0.4778328530091911  0.6360373824342975  0.6216240929143177
  0.4431543939238856  0.7061148662713322  0.5921732113468107
  0.8088746163614695  0.1632541294180084  0.5787300439379895
  0.7643044969181902  0.2199942338492713  0.6037864149443362
  0.7299856509591902  0.2885982833247139  0.6273240631898785
  0.6922388425295238  0.3566253238344228  0.6485323274921342
  0.6556362070390266  0.4260963475788638  0.6558732007211455
  0.6211605940108929  0.4970608879454781  0.6511811860194422
  0.5849661178826453  0.5663837409333835  0.6417132786051409
  0.5499323916202016  0.6360373824342975  0.6216240929143177
  0.5138826074049874  0.7035961991869456  0.5980210159215887
  0.4901181045395385  0.7747363158728532  0.5705915457830886
  0.8845188896772360  0.1661773644836986  0.4670447876906335
  0.8327223404548845  0.2091297892617023  0.5865953468283448
  0.8026109049842400  0.2869606191076947  0.6019247234706849
  0.7651692863057956  0.3552793506221874  0.6368198207298051
  0.7348769268454798  0.4298998183951084  0.6413213826052471
  0.6911042693746136  0.4952190200842189  0.6584305045595314
  0.6660452987958233  0.5715709956318872  0.6159108966500064
  0.6206254795270538  0.6366264035172821  0.6234889965294041
  0.5846108805249258  0.7061148662713322  0.5921732113468107
  0.5376471401124352  0.7747363158728532  0.5705915457830886
  0.5138826074049874  0.8460122804163991  0.4594268577027143

