MX2                                  
   1.00000000000000     
    37.8400001525999983    0.0000000000000000    0.0000000000000000
     0.0000000000000000   34.3779983521000005    0.0000000000000000
     0.0000000000000000    0.0000000000000000   15.2419996262000002
   Mo    X        
    36   90   
Direct
  0.2229947602515954  0.2058369505602833  0.4816635402603515
  0.3066279165800261  0.2072935314798609  0.5144364737895277
  0.2671475770756725  0.2849633046623016  0.5126137693438585
  0.3872813220122485  0.2041103553389799  0.5349195690523934
  0.3503594909263688  0.2844277142468121  0.5266334275001789
  0.3076791593194264  0.3633828217293585  0.5197551672643635
  0.4764429508104059  0.2032173617276787  0.5411925493048555
  0.4330251645009350  0.2822390237430277  0.5357825120716622
  0.3914731437683125  0.3628502377996379  0.5325407599050126
  0.3493661491031508  0.4422482717861342  0.5279496008203389
  0.5560623313893727  0.2032173617276787  0.5411925493048555
  0.5162526410998893  0.2827817938092196  0.5387740469282251
  0.4747519122832592  0.3623772728390731  0.5366947830869934
  0.4330260105370224  0.4422617618604539  0.5352785803976169
  0.3892612475778368  0.5194790526376168  0.5421222773339381
  0.6452239005945098  0.2041103553389799  0.5349195690523934
  0.5994801176988511  0.2822390237430277  0.5357825120716622
  0.5577533699165127  0.3623772728390731  0.5366947830869934
  0.5162526410998893  0.4418387274199955  0.5361586277449123
  0.4738134335542564  0.5219420559595305  0.5349508198317817
  0.4343381650498154  0.6039400910104321  0.5376165928281367
  0.7258773805246225  0.2072935314798609  0.5144364737895277
  0.6821457614636842  0.2844277142468121  0.5266334275001789
  0.6410321086481655  0.3628502377996379  0.5325407599050126
  0.5994792716891966  0.4422617618604539  0.5352785803976169
  0.5586918486455222  0.5219420559595305  0.5349508198317817
  0.5162526410998893  0.5996271090319273  0.5306416880866165
  0.4757043010130785  0.6795064752421025  0.5165305830831924
  0.8095105443054883  0.2058369505602833  0.4816635402603515
  0.7653577051241068  0.2849633046623016  0.5126137693438585
  0.7248261228803519  0.3633828217293585  0.5197551672643635
  0.6831391181917716  0.4422482717861342  0.5279496008203389
  0.6432440048386557  0.5194790526376168  0.5421222773339381
  0.5981671171763885  0.6039400910104321  0.5376165928281367
  0.5568009811867005  0.6795064752421025  0.5165305830831924
  0.5162526410998893  0.7585175333212757  0.4774196997868825
  0.1699551767563289  0.1939612933381767  0.4064688350961383
  0.2685957101730747  0.1769864780225965  0.4102160751403298
  0.2198591970157783  0.2680683105427539  0.4183106624031822
  0.3496461085355302  0.1792410246467754  0.4221250754650333
  0.3106967707636555  0.2604366512412125  0.4149228062391513
  0.2684002335917408  0.3386336216580084  0.4129610135600010
  0.4321765006020217  0.1592930710241325  0.4783022670228789
  0.3932472077544983  0.2552906473224188  0.4288809350796244
  0.3521840026731229  0.3372114663476889  0.4234479184891962
  0.3083319455193337  0.4168784307222045  0.4223707638662831
  0.5162526410998893  0.1757041175663481  0.4391415486703636
  0.4750096483506323  0.2549369235311158  0.4356258229672147
  0.4339479698544239  0.3355036864225875  0.4326156111279970
  0.3926468055183794  0.4155542356705061  0.4293516668009418
  0.3491401182738604  0.4952850278141305  0.4320368266166614
  0.6003287815977562  0.1592930710241325  0.4783022670228789
  0.5574956338755791  0.2549369235311158  0.4356258229672147
  0.5162526410998893  0.3353118550291270  0.4342893799905359
  0.4747672462097161  0.4153817224786762  0.4329894265483366
  0.4309163967288777  0.4962870472870961  0.4341876843021006
  0.3758886503128130  0.5844753022734583  0.4841566714162881
  0.6828591736642483  0.1792410246467754  0.4221250754650333
  0.6392580446619791  0.2552906473224188  0.4288809350796244
  0.5985573123453549  0.3355036864225875  0.4326156111279970
  0.5577380359900628  0.4153817224786762  0.4329894265483366
  0.5162526410998893  0.4949559243720277  0.4334605931462561
  0.4724514966046898  0.5738694302222817  0.4303665754135588
  0.4327654511639519  0.6527941842597061  0.4244399489410962
  0.7639095571218409  0.1769864780225965  0.4102160751403298
  0.7218085412458427  0.2604366512412125  0.4149228062391513
  0.6803212795266559  0.3372114663476889  0.4234479184891962
  0.6398584170619462  0.4155542356705061  0.4293516668009418
  0.6015889152806269  0.4962870472870961  0.4341876843021006
  0.5600537855950810  0.5738694302222817  0.4303665754135588
  0.5162526410998893  0.6494672983520130  0.4197073436809135
  0.4665298019451997  0.7325165300169536  0.4167170725184141
  0.8625500905385867  0.1939612933381767  0.4064688350961383
  0.8126461000888631  0.2680683105427539  0.4183106624031822
  0.7641050187983121  0.3386336216580084  0.4129610135600010
  0.7241733813950413  0.4168784307222045  0.4223707638662831
  0.6833651490210548  0.4952850278141305  0.4320368266166614
  0.6566165722939457  0.5844753022734583  0.4841566714162881
  0.5997398310622521  0.6527941842597061  0.4244399489410962
  0.5659754802545722  0.7325165300169536  0.4167170725184141
  0.5162526410998893  0.8136854547553849  0.3846565342908716
  0.1811932097535607  0.1581570967218693  0.5110309669906834
  0.2548009367838280  0.1897287653300234  0.6157852453899445
  0.2274811247011037  0.2435168436477115  0.6116993840957081
  0.3440970213655734  0.1785550404843203  0.6257078804953219
  0.3065191642627256  0.2586492214318387  0.6222538064277592
  0.2626115188848467  0.3366138620011805  0.6135125792388908
  0.4306684683312753  0.1640361376085278  0.6133119671367759
  0.3895604833829598  0.2572644531119016  0.6359638422679115
  0.3472744670985562  0.3372675466141127  0.6300422336913657
  0.3038197685774061  0.4177528122670185  0.6185018363138158
  0.5162526410998893  0.1782763508956799  0.6465396473983951
  0.4738754620737611  0.2566557972109605  0.6420416264264540
  0.4321520200569093  0.3360458033110166  0.6379677570952851
  0.3899974315270059  0.4158289185448013  0.6355551641320137
  0.3488857451835963  0.4946185081281885  0.6379853142670735
  0.6018368138685106  0.1640361376085278  0.6133119671367759
  0.5586298201524502  0.2566557972109605  0.6420416264264540
  0.5162526410998893  0.3361653127311196  0.6408093964844244
  0.4743414811434488  0.4156099173283614  0.6393048815565431
  0.4332545581187791  0.4950070788663019  0.6400903477140344
  0.3821968090677899  0.5817972784932236  0.6186130852534117
  0.6884082310244720  0.1785550404843203  0.6257078804953219
  0.6429447690070927  0.2572644531119016  0.6359638422679115
  0.6003532621428769  0.3360458033110166  0.6379677570952851
  0.5581638010563295  0.4156099173283614  0.6393048815565431
  0.5162526410998893  0.4954064513780490  0.6374844106126422
  0.4750146775756428  0.5748440259723147  0.6375874213745847
  0.4352116524328447  0.6571949856610615  0.6294047672957251
  0.7777043454159577  0.1897287653300234  0.6157852453899445
  0.7259861626516487  0.2586492214318387  0.6222538064277592
  0.6852308001963667  0.3372675466141127  0.6300422336913657
  0.6425077910533274  0.4158289185448013  0.6355551641320137
  0.5992507240809996  0.4950070788663019  0.6400903477140344
  0.5574906046505606  0.5748440259723147  0.6375874213745847
  0.5162526410998893  0.6547353053776894  0.6263403526707445
  0.4883889977918959  0.7387021764105379  0.6133061005365187
  0.8513120389367099  0.1581570967218693  0.5110309669906834
  0.8050241574986823  0.2435168436477115  0.6116993840957081
  0.7698937335051995  0.3366138620011805  0.6135125792388908
  0.7286855732418251  0.4177528122670185  0.6185018363138158
  0.6836195221113195  0.4946185081281885  0.6379853142670735
  0.6503084433222628  0.5817972784932236  0.6186130852534117
  0.5972936297669339  0.6571949856610615  0.6294047672957251
  0.5441162844343082  0.7387021764105379  0.6133061005365187
  0.5162526410998893  0.8249395638009164  0.5178359875919010

