MXY                                 
   1.00000000000000     
    31.3799991608000006    0.0000000000000000    0.0000000000000000
     0.0000000000000000   28.7840003967000015    0.0000000000000000
     0.0000000000000000    0.0000000000000000   16.2420005797999991
   M    X    Y     
   21   33   33
Direct
   0.4999999887006131   0.1919842860471949   0.5040962735083825
   0.4552451563938494   0.2803256840030688   0.5011718766169484
   0.4019542209013242   0.3747639747529193   0.4989058172420457
   0.3514766686870330   0.4700499530116516   0.4985064884963356
   0.3030291762140710   0.5675895596988006   0.4999686307241216
   0.2552095102191042   0.6539080453949853   0.5023954571519382
   0.5447548508034324   0.2803256840030688   0.5011718766169484
   0.4999999887006131   0.3723700743382693   0.4987086360994538
   0.4490299888376735   0.4679440077196089   0.4973221212032069
   0.3985617977021415   0.5638564629840394   0.4976664081500398
   0.3477800198836561   0.6520730736827155   0.4992512808612942
   0.5980457862959503   0.3747639747529193   0.4989058172420457
   0.5509700779835657   0.4679440077196089   0.4973221212032069
   0.4999999887006131   0.5642028861260432   0.4966511380416166
   0.4495598532405989   0.6552263953738987   0.4967998914372672
   0.6485233385102415   0.4700499530116516   0.4985064884963356
   0.6014382094951402   0.5638564629840394   0.4976664081500398
   0.5504401837527240   0.6552263953738987   0.4967998914372672
   0.6969707713592390   0.5675895596988006   0.4999686307241216
   0.6522199873136184   0.6520730736827155   0.4992512808612942
   0.7447904969781777   0.6539080453949853   0.5023954571519382
   0.5601697850845525   0.1533091764605635   0.4434728350872838
   0.4999999887006131   0.2460568857763301   0.3961789482342195
   0.4489192684268974   0.3411903137828294   0.4005916294429130
   0.3983046621989041   0.4358458380529995   0.3994838607878328
   0.3483004649135515   0.5309597121971967   0.3997468615463801
   0.2980673576533951   0.6267392916512332   0.3945189689055492
   0.2544811987334031   0.7299136465827479   0.4412407108440657
   0.6075154672888203   0.2415075420740525   0.4418043732021732
   0.5510807685664252   0.3411903137828294   0.4005916294429130
   0.4999999887006131   0.4362395563885240   0.4017340243273621
   0.4494037468378685   0.5316758706432367   0.4012265817886073
   0.3993335939010856   0.6273701100860536   0.3989205911241404
   0.3482016482232171   0.7306212958458207   0.4393854254005392
   0.6572173925704148   0.3328092589515063   0.4383397428574890
   0.6016952854062737   0.4358458380529995   0.3994838607878328
   0.5505962603594061   0.5316758706432367   0.4012265817886073
   0.4999999887006131   0.6277038042327097   0.3978911311799835
   0.4456377700009332   0.7317570300738929   0.4350150378718860
   0.7113738399570616   0.4350059651973398   0.4383141227108148
   0.6516995720797711   0.5309597121971967   0.3997468615463801
   0.6006663536722316   0.6273701100860536   0.3989205911241404
   0.5543622669923899   0.7317570300738929   0.4350150378718860
   0.7591659951793005   0.5274730247644432   0.4410237742881580
   0.7019326197478312   0.6267392916512332   0.3945189689055492
   0.6517983887701129   0.7306212958458207   0.4393854254005392
   0.8056900501020300   0.6164848649180203   0.4420850404589112
   0.7455187786678305   0.7299136465827479   0.4412407108440657
   0.4398302220808615   0.1533091764605635   0.4434728350872838
   0.3924845399084542   0.2415075420740525   0.4418043732021732
   0.3427826146268598   0.3328092589515063   0.4383397428574890
   0.2886261076481237   0.4350059651973398   0.4383141227108148
   0.2408339822219258   0.5274730247644432   0.4410237742881580
   0.1943099868913000   0.6164848649180203   0.4420850404589112
   0.5601268598611329   0.1547088955719189   0.5680290986706429
   0.4999999887006131   0.2481723684998685   0.6082594251191742
   0.4490645248668705   0.3426734247301789   0.5984285392504629
   0.3989000320694177   0.4365224332344704   0.5968372279542471
   0.3494524127550039   0.5308088142193371   0.5975162541639767
   0.2999441390214533   0.6261682183587858   0.6066562227063881
   0.2556956397412505   0.7293429894063823   0.5658063765725683
   0.6075507807484783   0.2427724643102653   0.5629260253969968
   0.5509355121264596   0.3426734247301789   0.5984285392504629
   0.4999999887006131   0.4370474733658364   0.5934339540958173
   0.4498528312378299   0.5317972392699474   0.5928157335868831
   0.4005108289308766   0.6271545050834140   0.5966598784237072
   0.3494104972683630   0.7302139698317864   0.5604973207971176
   0.6570546339796288   0.3336533983390713   0.5616729469089241
   0.6010999452999478   0.4365224332344704   0.5968372279542471
   0.5501472057555001   0.5317972392699474   0.5928157335868831
   0.4999999887006131   0.6276658069477145   0.5953828649664799
   0.4464926624870176   0.7318127388034217   0.5583371649863007
   0.7107477335693735   0.4350940637153747   0.5616446799628845
   0.6505475646462294   0.5308088142193371   0.5975162541639767
   0.5994891782664050   0.6271545050834140   0.5966598784237072
   0.5535073447102571   0.7318127388034217   0.5583371649863007
   0.7581864653885566   0.5271570087164934   0.5621581313983441
   0.7000558085518638   0.6261682183587858   0.6066562227063881
   0.6505894801010026   0.7302139698317864   0.5604973207971176
   0.8044436735814543   0.6159981676442794   0.5666886732343794
   0.7443043972520723   0.7293429894063823   0.5658063765725683
   0.4398731473361557   0.1547088955719189   0.5680290986706429
   0.3924491668248317   0.2427724643102653   0.5629260253969968
   0.3429453732176458   0.3336533983390713   0.5616729469089241
   0.2892522437999920   0.4350940637153747   0.5616446799628845
   0.2418135418087178   0.5271570087164934   0.5621581313983441
   0.1955563932079240   0.6159981676442794   0.5666886732343794
