MXY                                  
   1.00000000000000     
    34.6100006104000002    0.0000000000000000    0.0000000000000000
     0.0000000000000000   32.4959983825999998    0.0000000000000000
     0.0000000000000000    0.0000000000000000   15.2419996262000002
   M    X    Y
   28   36   36
Direct
  0.2429332724445720  0.2159496305244392  0.4963582210049410
  0.3355677141188657  0.2170994495386189  0.5200999611699860
  0.2916761766477583  0.2989679163786356  0.5258739199506713
  0.4248882683079380  0.2156749701591583  0.5270433821072404
  0.3819306139377723  0.3001947173960455  0.5292455727474089
  0.3347019173889960  0.3825586729599851  0.5338850506506042
  0.5177694338617016  0.2151808921300095  0.5287847554290922
  0.4724470984443461  0.2989047228086146  0.5311796968687326
  0.4263154409652723  0.3836620770802804  0.5336727679242698
  0.3811191093281197  0.4689625118232254  0.5401224341231050
  0.6106505695975036  0.2156749701591583  0.5270433821072404
  0.5630917692501655  0.2989047228086146  0.5311796968687326
  0.5177694338617016  0.3833029486960188  0.5339954154748341
  0.4721175086850414  0.4671095036336046  0.5345087880882319
  0.4265912735347857  0.5513981624111693  0.5273779836553423
  0.6999711535756459  0.2170994495386189  0.5200999611699860
  0.6536082537567461  0.3001947173960455  0.5292455727474089
  0.6092233969401620  0.3836620770802804  0.5336727679242698
  0.5634213590094698  0.4671095036336046  0.5345087880882319
  0.5177694338617016  0.5504598688610203  0.5309875434388888
  0.4731689090473737  0.6338491035253172  0.5218552842998911
  0.7926056176134209  0.2159496305244392  0.4963582210049410
  0.7438627059557446  0.2989679163786356  0.5258739199506713
  0.7008369204875482  0.3825586729599851  0.5338850506506042
  0.6544197136683302  0.4689625118232254  0.5401224341231050
  0.6089475643706483  0.5513981624111693  0.5273779836553423
  0.5623699586471322  0.6338491035253172  0.5218552842998911
  0.5177694338617016  0.7179827605893168  0.4876496472166564
  0.2024257089901581  0.1688662340223052  0.4250799318726812
  0.2935698485820050  0.1789884372090383  0.4291473123057553
  0.2433774950128850  0.2766965465843121  0.4237574983620302
  0.3813680576961624  0.1885633177439470  0.4215050907051133
  0.3373155584723992  0.2737724104701027  0.4213243705805307
  0.2900073956016826  0.3570472214007815  0.4301878207398002
  0.4716342654098241  0.1826864106646228  0.4354759634801243
  0.4274505485093035  0.2723489275768754  0.4254310102542667
  0.3809777339741215  0.3575324123612046  0.4287458810288720
  0.3287389326274616  0.4443596102141083  0.4509744795554830
  0.5639046022846892  0.1826864106646228  0.4354759634801243
  0.5177694338617016  0.2711305592744369  0.4266568590041515
  0.4721653732901835  0.3560280305444811  0.4302139652904651
  0.4249503445767385  0.4407242537168359  0.4326489755301771
  0.3805202289905007  0.5247837451271129  0.4328316835536483
  0.6541707802092722  0.1885633177439470  0.4215050907051133
  0.6080882893961245  0.2723489275768754  0.4254310102542667
  0.5633734944043303  0.3560280305444811  0.4302139652904651
  0.5177694338617016  0.4391500106343758  0.4311894051357477
  0.4726649521015519  0.5216155340458094  0.4283926023811495
  0.4260825782537832  0.6065716598797209  0.4251312563824878
  0.7419690191125080  0.1789884372090383  0.4291473123057553
  0.6982232496439585  0.2737724104701027  0.4213243705805307
  0.6545611337203900  0.3575324123612046  0.4287458810288720
  0.6105884933286964  0.4407242537168359  0.4326489755301771
  0.5628739155929610  0.5216155340458094  0.4283926023811495
  0.5177694338617016  0.6040130834347233  0.4208338141680803
  0.4642048488753060  0.6911181388420645  0.4232719110091741
  0.8331131587043608  0.1688662340223052  0.4250799318726812
  0.7921614099252006  0.2766965465843121  0.4237574983620302
  0.7455315167908917  0.3570472214007815  0.4301878207398002
  0.7067999052779715  0.4443596102141083  0.4509744795554830
  0.6550186088860374  0.5247837451271129  0.4328316835536483
  0.6094562596516520  0.6065716598797209  0.4251312563824878
  0.5713340188192066  0.6911181388420645  0.4232719110091741
  0.5177694338617016  0.7781433441707770  0.3993869973208038
  0.1791668854007726  0.2002683046754842  0.5297682264096143
  0.2794927690101570  0.2002602031354238  0.6235132584021210
  0.2489723532269782  0.2566738329857483  0.6303371866213996
  0.3782786323422316  0.1863591521920596  0.6235305261847306
  0.3370218483094873  0.2708499100210149  0.6291194165691686
  0.2888694763266588  0.3517871483470521  0.6319153143998761
  0.4710729298462583  0.1816790271305250  0.6191705399995646
  0.4265327185677095  0.2705493347817350  0.6328941578029373
  0.3808492262010366  0.3549690725267222  0.6360528125970876
  0.3304140693334061  0.4411142743424519  0.6293113908361532
  0.5644659378482545  0.1816790271305250  0.6191705399995646
  0.5177694338617016  0.2697347833251765  0.6344968898140478
  0.4720907000966074  0.3545821021865054  0.6360040486957507
  0.4269679778959924  0.4388634445275393  0.6388664386135268
  0.3798430828295741  0.5245974350881419  0.6339210276040655
  0.6572602204432976  0.1863591521920596  0.6235305261847306
  0.6090061193377246  0.2705493347817350  0.6328941578029373
  0.5634481675979052  0.3545821021865054  0.6360040486957507
  0.5177694338617016  0.4392243806494429  0.6379381845995991
  0.4714042211865123  0.5243217798756852  0.6351399882960538
  0.4271956284864312  0.6107515575702382  0.6237224776579406
  0.7560461433824184  0.2002602031354238  0.6235132584021210
  0.6985169746869631  0.2708499100210149  0.6291194165691686
  0.6546896265844910  0.3549690725267222  0.6360528125970876
  0.6085708599805442  0.4388634445275393  0.6388664386135268
  0.5641346465080003  0.5243217798756852  0.6351399882960538
  0.5177694338617016  0.6070613760085685  0.6293913946551180
  0.4873246953202900  0.6951961832210621  0.6220056248182764
  0.8563720139608892  0.2002683046754842  0.5297682264096143
  0.7865665293476285  0.2566738329857483  0.6303371866213996
  0.7466693764588618  0.3517871483470521  0.6319153143998761
  0.7051247685431385  0.4411142743424519  0.6293113908361532
  0.6556957550758603  0.5245974350881419  0.6339210276040655
  0.6083432093901128  0.6107515575702382  0.6237224776579406
  0.5482141723742235  0.6951961832210621  0.6220056248182764
  0.5177694338617016  0.7879302222320727  0.5326157408171529
