MX2                                   
   1.00000000000000     
    37.8400001525999983    0.0000000000000000    0.0000000000000000
     0.0000000000000000   34.3779983521000005    0.0000000000000000
     0.0000000000000000    0.0000000000000000   16.2420005797999991
   M    X    
   36   104   
Direct
   0.5000000094793837   0.1371352337714997   0.5124223504955331
   0.4629327684148710   0.2104413154263457   0.5036300345136994
   0.4184514660098920   0.2895805194026382   0.4964510993980332
   0.3765468171152107   0.3693940034183970   0.4940178126104198
   0.3354998226808611   0.4476793873721672   0.4947791019769105
   0.2936262612799632   0.5275150538937420   0.4989512076381650
   0.2535249406773811   0.6093602494326545   0.5055150127347345
   0.2143640354150571   0.6814915824168074   0.5127837506327120
   0.5370671909244505   0.2104413154263457   0.5036300345136994
   0.5000000094793837   0.2876096268231803   0.4972459397004764
   0.4577297447453109   0.3673034698335931   0.4935874238131167
   0.4161926067860974   0.4467567489915049   0.4928463121679109
   0.3744421537496559   0.5260705871469388   0.4945929778893815
   0.3328366386407036   0.6061632762541764   0.4990290644051955
   0.2906860012746588   0.6800416102757108   0.5050241312429639
   0.5815485827321838   0.2895805194026382   0.4964510993980332
   0.5422702741870322   0.3673034698335931   0.4935874238131167
   0.5000000094793837   0.4469732688034933   0.4920089183892667
   0.4582490323021761   0.5264869818352094   0.4923124053978382
   0.4167098240237803   0.6066526347418237   0.4944814301696368
   0.3751878486352136   0.6828801826128110   0.4982629099294144
   0.6234531124408171   0.3693940034183970   0.4940178126104198
   0.5838074121726768   0.4467567489915049   0.4928463121679109
   0.5417509866565992   0.5264869818352094   0.4923124053978382
   0.5000000094793837   0.6064706698332524   0.4929354323409561
   0.4589616325892316   0.6829493459722811   0.4945852078865259
   0.6645001366584605   0.4476793873721672   0.4947791019769105
   0.6255578055896661   0.5260705871469388   0.4945929778893815
   0.5832901949350017   0.6066526347418237   0.4944814301696368
   0.5410383565598161   0.6829493459722811   0.4945852078865259
   0.7063737576523863   0.5275150538937420   0.4989512076381650
   0.6671633505083444   0.6061632762541764   0.4990290644051955
   0.6248121107041086   0.6828801826128110   0.4982629099294144
   0.7464751080646880   0.6093602494326545   0.5055150127347345
   0.7093139878743895   0.6800416102757108   0.5050241312429639
   0.7856359984221477   0.6814915824168074   0.5127837506327120
   0.5501318466334212   0.1036809225659259   0.4551943960591888
   0.5000000094793837   0.1803302330831588   0.4004977496552310
   0.4576539660663401   0.2603548268399497   0.4002353222432640
   0.4155569759599970   0.3402883069829817   0.3959244468978343
   0.3743314047983126   0.4203607637013718   0.3945760495354868
   0.3318074961649747   0.4996024747219219   0.3973750128980160
   0.2901594118799161   0.5793393564477832   0.4023458321193037
   0.2486228547344087   0.6594925223543611   0.4017459961378634
   0.5887366518472719   0.1765523198609674   0.4461825547268945
   0.5423460230562833   0.2603548268399497   0.4002353222432640
   0.5000000094793837   0.3401891094427981   0.3985934373382882
   0.4581112309893484   0.4201571337275199   0.3961621132834526
   0.4160457367554954   0.5001462830037567   0.3965323227823788
   0.3740681890736254   0.5799948515233891   0.3998369483708926
   0.3326424511510785   0.6600565826929893   0.4019629790423916
   0.6307357033153138   0.2547944557493263   0.4357581143265693
   0.5844430131890584   0.3402883069829817   0.3959244468978343
   0.5418887581597068   0.4201571337275199   0.3961621132834526
   0.5000000094793837   0.5000622776338863   0.3953064322765881
   0.4579364429227382   0.5798687224728704   0.3966167394070767
   0.4163367653324324   0.6604356999185705   0.3969764977486430
   0.6762287831001762   0.3396504025849327   0.4343173252777644
   0.6256685545410094   0.4203607637013718   0.3945760495354868
   0.5839542523935523   0.5001462830037567   0.3965323227823788
   0.5420635461998839   0.5798687224728704   0.3966167394070767
   0.5000000094793837   0.6595943315275056   0.3946491659764836
   0.7143854107138253   0.4124894951973984   0.4349697592413936
   0.6681924929840728   0.4996024747219219   0.3973750128980160
   0.6259317702656967   0.5799948515233891   0.3998369483708926
   0.5836632535999169   0.6604356999185705   0.3969764977486430
   0.7586371917094227   0.4981168738179833   0.4397595468483055
   0.7098405772691395   0.5793393564477832   0.4023458321193037
   0.6673575081882446   0.6600565826929893   0.4019629790423916
   0.7990585720561080   0.5767232949802442   0.4484203508337083
   0.7513772089125307   0.6594925223543611   0.4017459961378634
   0.8366488691123299   0.6500381290569425   0.4543613732987962
   0.4498681425156271   0.1036809225659259   0.4551943960591888
   0.4112633670850697   0.1765523198609674   0.4461825547268945
   0.3692642560240088   0.2547944557493263   0.4357581143265693
   0.3237712060488717   0.3396504025849327   0.4343173252777644
   0.2856146380282500   0.4124894951973984   0.4349697592413936
   0.2413628719375091   0.4981168738179833   0.4397595468483055
   0.2009414468762343   0.5767232949802442   0.4484203508337083
   0.1633511498464446   0.6500381290569425   0.4543613732987962
   0.2135909451306854   0.7457669048458775   0.4543307279283813
   0.2902002199523375   0.7462722824030945   0.4471356372658437
   0.3722353041272851   0.7472499793112931   0.4383942959839906
   0.4618584802789411   0.7482119032028731   0.4350447955698079
   0.5381414790603808   0.7482119032028731   0.4350447955698079
   0.6277646552120438   0.7472499793112931   0.4383942959839906
   0.7097998287897385   0.7462722824030945   0.4471356372658437
   0.7864090440183636   0.7457669048458775   0.4543307279283813
   0.5503424434084146   0.1079315021323929   0.5790590876092298
   0.5000000094793837   0.1858460136518438   0.6130536079792913
   0.4574485717450205   0.2638887585817968   0.5975441897934576
   0.4156948197225780   0.3417806540771872   0.5931560896238851
   0.3751537063113790   0.4204757916013344   0.5929169643061272
   0.3336151707109963   0.4985960284812223   0.5945747056256387
   0.2929274463102297   0.5776567676371268   0.5998886608294441
   0.2524539839723979   0.6573451362902029   0.6142240392407742
   0.5891889007195045   0.1795700274248969   0.5670253557594049
   0.5425514173776022   0.2638887585817968   0.5975441897934576
   0.5000000094793837   0.3420878791431780   0.5905377816462160
   0.4584187016179264   0.4207404198702830   0.5890908965592510
   0.4169342670558269   0.4998111097428044   0.5895887127090245
   0.3758952524557483   0.5788957865239416   0.5917202883872579
   0.3354436281581478   0.6585690787553962   0.5993166603804705
   0.6310688676798649   0.2567171028052885   0.5595530304699305
   0.5843051992097714   0.3417806540771872   0.5931560896238851
   0.5415813173144156   0.4207404198702830   0.5890908965592510
   0.5000000094793837   0.4999203250771345   0.5886461877483586
   0.4585620765167359   0.5792014280315135   0.5894806052231696
   0.4178839337052958   0.6593977145832145   0.5942735029598570
   0.6760822019252019   0.3401917306012373   0.5560033815277953
   0.6248462530279505   0.4204757916013344   0.5929169643061272
   0.5830657519029478   0.4998111097428044   0.5895887127090245
   0.5414378828225869   0.5792014280315135   0.5894806052231696
   0.5000000094793837   0.6586939997818917   0.5930343204228795
   0.7137313102872250   0.4119766431075656   0.5566523435621731
   0.6663848482477788   0.4985960284812223   0.5945747056256387
   0.6241047366932998   0.5788957865239416   0.5917202883872579
   0.5821160852270537   0.6593977145832145   0.5942735029598570
   0.7567175392431382   0.4966999017992197   0.5634813307695403
   0.7070725428388180   0.5776567676371268   0.5998886608294441
   0.6645563609909005   0.6585690787553962   0.5993166603804705
   0.7969209436306798   0.5755010391465598   0.5692449328809491
   0.7475460349863762   0.6573451362902029   0.6142240392407742
   0.8343407623760984   0.6486179394216106   0.5784719768374534
   0.4496575457406337   0.1079315021323929   0.5790590876092298
   0.4108111182128447   0.1795700274248969   0.5670253557594049
   0.3689311214691832   0.2567171028052885   0.5595530304699305
   0.3239178170071474   0.3401917306012373   0.5560033815277953
   0.2862686788353914   0.4119766431075656   0.5566523435621731
   0.2432824797156433   0.4966999017992197   0.5634813307695403
   0.2030790753280874   0.5755010391465598   0.5692449328809491
   0.1656592714611143   0.6486179394216106   0.5784719768374534
   0.2163428529835045   0.7443584190830560   0.5784494230337418
   0.2925014798138553   0.7451663527874219   0.5679795099167517
   0.3738944186691514   0.7464043818985946   0.5621272622620149
   0.4625221512635955   0.7476383643386180   0.5567023675139525
   0.5374778080757336   0.7476383643386180   0.5567023675139525
   0.6261055406701701   0.7464043818985946   0.5621272622620149
   0.7074985093351929   0.7451663527874219   0.5679795099167517
   0.7836571510439817   0.7443584190830560   0.5784494230337418
