MX2                          
   1.00000000000000     
    41.0699996948000035    0.0000000000000000    0.0000000000000000
     0.0000000000000000   38.0900001525999983    0.0000000000000000
     0.0000000000000000    0.0000000000000000   15.2419996262000002
   M    X     
   45   110   
Direct
  0.2075619979201416  0.1855160756722071  0.4583919100234041
  0.2848417063465852  0.1862442123112591  0.4989255179597953
  0.2476553695589171  0.2558934980792184  0.4996633877357822
  0.3582884828533219  0.1845780184787341  0.5253859943375022
  0.3240365689375653  0.2571975709533742  0.5207451455993251
  0.2828701043324325  0.3257223359133712  0.5237224123351174
  0.4403205100469145  0.1842453161318923  0.5356191655958429
  0.3997615348640875  0.2557090722561187  0.5324973743005664
  0.3606189445398975  0.3287920794510582  0.5343211097061428
  0.3233342093580350  0.4018535749141298  0.5359055328649592
  0.5149744299773573  0.1847159251201723  0.5256397304143881
  0.4763141962525628  0.2567439785024427  0.5379871263576815
  0.4380986846662423  0.3284867838715136  0.5405365765732785
  0.3994234677282907  0.4001586573354752  0.5438504895572197
  0.3600634356865088  0.4702469037896141  0.5545774407980786
  0.5896283499078081  0.1842453161318923  0.5356191655958429
  0.5536346637021587  0.2567439785024427  0.5379871263576815
  0.5149744299773573  0.3283833528554920  0.5423841629078029
  0.4763115913711605  0.4001605744933433  0.5450958113588388
  0.4372376856414508  0.4722002654017695  0.5468369378137012
  0.4005633612726800  0.5463368323844997  0.5528971275263550
  0.6716603920027886  0.1845780184787341  0.5253859943375022
  0.6301873548934106  0.2557090722561187  0.5324973743005664
  0.5918501752884789  0.3284867838715136  0.5405365765732785
  0.5536372685835618  0.4001605744933433  0.5450958113588388
  0.5149744299773573  0.4719680971605763  0.5455015782093356
  0.4763785984226755  0.5430268486496336  0.5412349284093978
  0.4382706010006517  0.6152422120596132  0.5262291430610775
  0.7451071685095262  0.1862442123112591  0.4989255179597953
  0.7059123207955839  0.2571975709533742  0.5207451455993251
  0.6693299302918626  0.3287920794510582  0.5343211097061428
  0.6305254518319867  0.4001586573354752  0.5438504895572197
  0.5927111742889195  0.4722002654017695  0.5468369378137012
  0.5535702615076891  0.5430268486496336  0.5412349284093978
  0.5149744299773573  0.6140751787445172  0.5286058563629443
  0.4773220146383225  0.6849376574993284  0.5072286635767413
  0.8223868620102294  0.1855160756722071  0.4583919100234041
  0.7822934829207678  0.2558934980792184  0.4996633877357822
  0.7470787406965510  0.3257223359133712  0.5237224123351174
  0.7066146803994574  0.4018535749141298  0.5359055328649592
  0.6698854242438628  0.4702469037896141  0.5545774407980786
  0.6293855582632387  0.5463368323844997  0.5528971275263550
  0.5916782589297189  0.6152422120596132  0.5262291430610775
  0.5526268452920561  0.6849376574993284  0.5072286635767413
  0.5149744299773573  0.7556705896072025  0.4602350284065604
  0.1755878374165226  0.1455209993416889  0.3790375800528377
  0.2520886892158525  0.1538935719563711  0.4006240595122293
  0.2099815382355374  0.2378695532245043  0.3888912553489040
  0.3256347984051381  0.1626997420986255  0.4078377030157098
  0.2894367619184590  0.2354610696810188  0.4051114884023216
  0.2493873379480570  0.3055162977619386  0.4065794534018934
  0.4002119851327430  0.1441344877601805  0.4714659613027718
  0.3641080920583695  0.2323680462239719  0.4228179889675507
  0.3245284603179369  0.3071639254219334  0.4229353502837545
  0.2727300158197576  0.3840249499914740  0.4632153289854922
  0.4773051584343879  0.1624479100300740  0.4251597166725039
  0.4391041337004519  0.2318540040774553  0.4322198929686292
  0.4006458402145550  0.3053565293532758  0.4341555816602352
  0.3620091165091049  0.3776788767478511  0.4354389672245506
  0.3221140187158729  0.4498867900137421  0.4439908961644790
  0.5526437014959766  0.1624479100300740  0.4251597166725039
  0.5149744299773573  0.2353267119340257  0.4329484118058882
  0.4767609211304085  0.3053885889541370  0.4374223906917403
  0.4381995010998326  0.3772876286887956  0.4402014185426050
  0.3978761759903179  0.4498021489844642  0.4452830725527158
  0.3457387663917447  0.5296082586131627  0.5054166346967018
  0.6297369344275253  0.1441344877601805  0.4714659613027718
  0.5908447262299196  0.2318540040774553  0.4322198929686292
  0.5531879388243137  0.3053885889541370  0.4374223906917403
  0.5149744299773573  0.3769614034832975  0.4415985185483767
  0.4759212281469564  0.4484004203271857  0.4436093091560321
  0.4352133803402151  0.5198567604815928  0.4438187488870869
  0.3987410465429235  0.5904152810882121  0.4370318482045168
  0.7043141062537494  0.1626997420986255  0.4078377030157098
  0.6658408126005184  0.2323680462239719  0.4228179889675507
  0.6293030495429442  0.3053565293532758  0.4341555816602352
  0.5917493588548810  0.3772876286887956  0.4402014185426050
  0.5540276317834215  0.4484004203271857  0.4436093091560321
  0.5149744299773573  0.5182687863206085  0.4394269044878076
  0.4766767338193985  0.5875939726631272  0.4298512951648221
  0.4378813192692414  0.6591485499627784  0.4146565350246516
  0.7778601707145120  0.1538935719563711  0.4006240595122293
  0.7405120980362565  0.2354610696810188  0.4051114884023216
  0.7054203996367847  0.3071639254219334  0.4229353502837545
  0.6679397583470050  0.3776788767478511  0.4354389672245506
  0.6320727733727209  0.4498021489844642  0.4452830725527158
  0.5947354796145063  0.5198567604815928  0.4438187488870869
  0.5532721261353153  0.5875939726631272  0.4298512951648221
  0.5149744299773573  0.6568477688405172  0.4114066969415744
  0.4698307877884808  0.7308815269866261  0.4002111923668012
  0.8543610597673126  0.1455209993416889  0.3790375800528377
  0.8199673515219540  0.2378695532245043  0.3888912553489040
  0.7805614996302319  0.3055162977619386  0.4065794534018934
  0.7572188143078439  0.3840249499914740  0.4632153289854922
  0.7078348710416266  0.4498867900137421  0.4439908961644790
  0.6842101531441741  0.5296082586131627  0.5054166346967018
  0.6312078730173516  0.5904152810882121  0.4370318482045168
  0.5920675406611300  0.6591485499627784  0.4146565350246516
  0.5601180721662343  0.7308815269866261  0.4002111923668012
  0.5149744299773573  0.8042648140491790  0.3629735644019415
  0.1530369641972873  0.1717394198513998  0.4801787439260202
  0.2346081580870435  0.1713089469565032  0.5909058918785692
  0.2086377785252113  0.2194981821115444  0.5943088121019618
  0.3183166460313964  0.1601908743283229  0.6131509084829511
  0.2829888034938375  0.2313219832885073  0.6105632944127153
  0.2426775961709911  0.3008005443354057  0.6105458850705329
  0.3977174545976155  0.1488820956220770  0.6063132237469496
  0.3595106270739077  0.2315526988102905  0.6296681742678599
  0.3206789279664156  0.3031398909815704  0.6296631366086287
  0.2716152591634771  0.3815977566294656  0.5982580001724599
  0.4762214237785370  0.1588960935905221  0.6303910770746117
  0.4370770110262625  0.2316538713678618  0.6383016996007664
  0.3983220340262862  0.3031671612305835  0.6378787171291875
  0.3592028771871911  0.3752121675713500  0.6417578608102475
  0.3224481845767793  0.4461851117676841  0.6494967550926375
  0.5537274361518348  0.1588960935905221  0.6303910770746117
  0.5149744299773573  0.2305796923462569  0.6377012532605779
  0.4761868617494481  0.3036182235214602  0.6437340289171706
  0.4375830334137293  0.3752888650990724  0.6465558829988844
  0.4002419390163293  0.4468881226692317  0.6514759980548906
  0.3540136696280591  0.5248369364723011  0.6382041074602927
  0.6322314351598826  0.1488820956220770  0.6063132237469496
  0.5928718489284587  0.2316538713678618  0.6383016996007664
  0.5537619982052744  0.3036182235214602  0.6437340289171706
  0.5149744299773573  0.3757303754929466  0.6472279935474586
  0.4764399531297779  0.4479467223377774  0.6485809152083889
  0.4390366857162101  0.5200972138584156  0.6499651231731081
  0.4007879114471261  0.5942700040593376  0.6414570067553844
  0.7116322437017530  0.1601908743283229  0.6131509084829511
  0.6704382477821961  0.2315526988102905  0.6296681742678599
  0.6316268855339904  0.3031671612305835  0.6378787171291875
  0.5923658265409935  0.3752888650990724  0.6465558829988844
  0.5535089068249441  0.4479467223377774  0.6485809152083889
  0.5149744299773573  0.5207159551994971  0.6461208884173349
  0.4762438491264765  0.5937591709254340  0.6357394604218687
  0.4386868476311178  0.6678324752026804  0.6136621386147533
  0.7953406645898565  0.1713089469565032  0.5909058918785692
  0.7469600713622658  0.2313219832885073  0.6105632944127153
  0.7092699617667330  0.3031398909815704  0.6296631366086287
  0.6707459827675305  0.3752121675713500  0.6417578608102475
  0.6297070103223600  0.4468881226692317  0.6514759980548906
  0.5909121742385114  0.5200972138584156  0.6499651231731081
  0.5537050108038941  0.5937591709254340  0.6357394604218687
  0.5149744299773573  0.6650796206045759  0.6185183204907667
  0.4893015221728659  0.7399748631361450  0.5977294119247053
  0.8769119385867481  0.1717394198513998  0.4801787439260202
  0.8213111186829817  0.2194981821115444  0.5943088121019618
  0.7872712339809528  0.3008005443354057  0.6105458850705329
  0.7583335709884677  0.3815977566294656  0.5982580001724599
  0.7075006604765540  0.4461851117676841  0.6494967550926375
  0.6759352052037007  0.5248369364723011  0.6382041074602927
  0.6291610081131417  0.5942700040593376  0.6414570067553844
  0.5912620122992461  0.6678324752026804  0.6136621386147533
  0.5406473377818490  0.7399748631361450  0.5977294119247053
  0.5149744299773573  0.8163812856282412  0.4947237154715440
