MX2                                  
   1.00000000000000     
    34.6100006104000002    0.0000000000000000    0.0000000000000000
     0.0000000000000000   31.4960002898999996    0.0000000000000000
     0.0000000000000000    0.0000000000000000   16.2420005797999991
   M    X    
   28   84  
Direct
   0.5000000093186334   0.1619414324600708   0.5089275835668186
   0.4597155813416564   0.2411792342066437   0.5037020593012715
   0.4104763457859906   0.3287113965431787   0.4988455829270398
   0.3655572045551683   0.4147062441674179   0.4966885591559588
   0.3202097205483321   0.5004212658664263   0.4973724721039005
   0.2758246949104836   0.5910964092298093   0.5007253942674835
   0.2334757427166963   0.6689515488874196   0.5044020644870739
   0.5402844372667129   0.2411792342066437   0.5037020593012715
   0.5000000093186334   0.3254983845857316   0.4993919273815112
   0.4540746214244140   0.4129531716953576   0.4968086188418119
   0.4084013257954475   0.4998073351417622   0.4963930531305661
   0.3624377328753877   0.5872963533792559   0.4979003982749893
   0.3160654598644909   0.6677860773610790   0.5006667444211655
   0.5895236430333011   0.3287113965431787   0.4988455829270398
   0.5459253673948854   0.4129531716953576   0.4968086188418119
   0.5000000093186334   0.5000103750332098   0.4958690967960613
   0.4543569504212828   0.5872645186928039   0.4962495240007310
   0.4097718887475068   0.6708941440311749   0.4974269063323608
   0.6344427842641156   0.4147062441674179   0.4966885591559588
   0.5915986332347659   0.4998073351417622   0.4963930531305661
   0.5456430681870865   0.5872645186928039   0.4962495240007310
   0.5000000093186334   0.6706100877213678   0.4963302487546364
   0.6797902682709589   0.5004212658664263   0.4973724721039005
   0.6375622261548264   0.5872963533792559   0.4979003982749893
   0.5902280702827153   0.6708941440311749   0.4974269063323608
   0.7241752939088012   0.5910964092298093   0.5007253942674835
   0.6839345289548063   0.6677860773610790   0.5006667444211655
   0.7665243057096415   0.6689515488874196   0.5044020644870739
   0.5551800475244730   0.1263180902278934   0.4496725750424316
   0.5000000093186334   0.2100052864527631   0.3982405570519462
   0.4532853643702309   0.2967681160409980   0.4020890112970305
   0.4084766707210678   0.3839927020985663   0.3985650335119376
   0.3630125822753095   0.4706217189330482   0.3979196372230273
   0.3168150111724769   0.5569619917215332   0.4001399689830277
   0.2718224385111498   0.6446634874144890   0.3946204199050365
   0.5968413342236760   0.2040554541622512   0.4457470673133769
   0.5467146542670293   0.2967681160409980   0.4020890112970305
   0.5000000093186334   0.3832610619858077   0.4014585797812044
   0.4543294949317731   0.4709155518807008   0.3998356118719225
   0.4082043343537331   0.5582071308513178   0.4007165206014067
   0.3635018676158821   0.6459570763347936   0.4001992072728308
   0.6455775586172653   0.2944977628297898   0.4380411500269715
   0.5915232882802544   0.3839927020985663   0.3985650335119376
   0.5456705237054875   0.4709155518807008   0.3998356118719225
   0.5000000093186334   0.5579409088376511   0.3996049375127190
   0.4545486622884375   0.6450382934562573   0.3977527390930271
   0.6903708049292879   0.3790635319978499   0.4357726059762442
   0.6369873767260130   0.4706217189330482   0.3979196372230273
   0.5917956246764861   0.5582071308513178   0.4007165206014067
   0.5454513265308533   0.6450382934562573   0.3977527390930271
   0.7344585777489557   0.4638640743878258   0.4359071238062884
   0.6831849478577363   0.5569619917215332   0.4001399689830277
   0.6364981509924937   0.6459570763347936   0.4001992072728308
   0.7814463743104755   0.5558033508269651   0.4418279475232030
   0.7281775503081487   0.6446634874144890   0.3946204199050365
   0.8221189218663275   0.6341283984259829   0.4445296697539626
   0.4448199711127919   0.1263180902278934   0.4496725750424316
   0.4031586545956156   0.2040554541622512   0.4457470673133769
   0.3544224600199942   0.2944977628297898   0.4380411500269715
   0.3096291838900020   0.3790635319978499   0.4357726059762442
   0.2655413812523666   0.4638640743878258   0.4359071238062884
   0.2185536741158629   0.5558033508269651   0.4418279475232030
   0.1778810669529565   0.6341283984259829   0.4445296697539626
   0.2331198029841271   0.7391299441962085   0.4443353577761676
   0.3151434203456978   0.7399064205882326   0.4414384329207863
   0.4111401534498419   0.7412392245979305   0.4360719094208172
   0.5000000093186334   0.7417233613044282   0.4356254515068925
   0.5888598055803709   0.7412392245979305   0.4360719094208172
   0.6848565386845139   0.7399064205882326   0.4414384329207863
   0.7668802603512025   0.7391299441962085   0.4443353577761676
   0.5553510897771434   0.1286797929297485   0.5730950423358769
   0.5000000093186334   0.2137284628525147   0.6129497009189508
   0.4531291198667273   0.2993420283471264   0.5989435503193001
   0.4084190600449108   0.3852125296838790   0.5961528526464861
   0.3634366280022744   0.4704892907134194   0.5955629238367417
   0.3180231619232383   0.5559393445369473   0.5969826188381306
   0.2738711799018108   0.6434095702212276   0.6095018776722563
   0.5966316872516511   0.2060175034954226   0.5666339212746261
   0.5468708987705386   0.2993420283471264   0.5989435503193001
   0.5000000093186334   0.3846924193961599   0.5936000720130068
   0.4545243339551884   0.4712792337169747   0.5926421652008820
   0.4089039779142738   0.5578636087312709   0.5927493621941178
   0.3649047803591623   0.6452148611158418   0.5969746111988836
   0.6459917444208931   0.2960154515160741   0.5610548069449890
   0.5915809287743802   0.3852125296838790   0.5961528526464861
   0.5454756846820721   0.4712792337169747   0.5926421652008820
   0.5000000093186334   0.5577336701436774   0.5924135603868088
   0.4550712674214096   0.6446837032518282   0.5954460486756596
   0.6905799569591298   0.3792687675196669   0.5572748229288054
   0.6365633608170235   0.4704892907134194   0.5955629238367417
   0.5910959811159394   0.5578636087312709   0.5927493621941178
   0.5449287512158573   0.6446837032518282   0.5954460486756596
   0.7339850987527566   0.4630056862845220   0.5589384010575131
   0.6819768268960608   0.5559393445369473   0.5969826188381306
   0.6350952382780969   0.6452148611158418   0.5969746111988836
   0.7803622812415956   0.5551208488331559   0.5626886583256292
   0.7261288089174803   0.6434095702212276   0.6095018776722563
   0.8205821866091800   0.6330596328459218   0.5679518607839984
   0.4446489586492009   0.1286797929297485   0.5730950423358769
   0.4033683015676406   0.2060175034954226   0.5666339212746261
   0.3540082145804283   0.2960154515160741   0.5610548069449890
   0.3094200318601681   0.3792687675196669   0.5572748229288054
   0.2660149198845094   0.4630056862845220   0.5589384010575131
   0.2196377522757654   0.5551208488331559   0.5626886583256292
   0.1794178618171653   0.6330596328459218   0.5679518607839984
   0.2345497531568113   0.7383499173914470   0.5678235555033975
   0.3164249094089776   0.7392855204309287   0.5623462938906392
   0.4120343519354044   0.7410966182537420   0.5591151455325505
   0.5000000093186334   0.7417866892384293   0.5571045128807834
   0.5879656667018556   0.7410966182537420   0.5591151455325505
   0.6835751091993916   0.7392855204309287   0.5623462938906392
   0.7654502654804478   0.7383499173914470   0.5678235555033975
