MX2                                  
   1.00000000000000     
    24.9200000762999991    0.0000000000000000    0.0000000000000000
     0.0000000000000000   23.1889991759999994    0.0000000000000000
     0.0000000000000000    0.0000000000000000   16.2420005797999991
   M    X 
   10   36   
Direct
   0.5000000291375880   0.2738045186982236   0.4979128928686979
   0.4427623768186572   0.3839295364311847   0.4994257039805623
   0.3778231130024139   0.5048187035373107   0.5001953895658562
   0.3176781891540188   0.6131557152347336   0.5000993989372122
   0.5572376219059535   0.3839295364311847   0.4994257039805623
   0.5000000291375880   0.5000012512844120   0.5000365036460824
   0.4350748691590506   0.6112953728546940   0.5011025907991307
   0.6221768260913754   0.5048187035373107   0.5001953895658562
   0.5649251295254357   0.6112953728546940   0.5011025907991307
   0.6823218095304667   0.6131557152347336   0.5000993989372122
   0.5753888437169096   0.2271719045511154   0.4352433373481890
   0.5000000291375880   0.3435481402760309   0.3938592354614400
   0.4360182060155118   0.4606260937677342   0.4013783247410719
   0.3736746299825611   0.5788536338079280   0.3954367326496261
   0.3180023714581805   0.7071024428882056   0.4386320660038784
   0.6363804389597723   0.3373909046843604   0.4385609924105357
   0.5639817926689745   0.4606260937677342   0.4013783247410719
   0.5000000291375880   0.5797599869105101   0.4022894523465024
   0.4371029645863230   0.7086508360790168   0.4417438956355887
   0.6993382819714521   0.4545568496928057   0.4393087557666436
   0.6263253687420567   0.5788536338079280   0.3954367326496261
   0.5628970340981633   0.7086508360790168   0.4417438956355887
   0.7576015268423936   0.5663259487729765   0.4371746375365702
   0.6819976272664450   0.7071024428882056   0.4386320660038784
   0.4246111550077082   0.2271719045511154   0.4352433373481890
   0.3636195299494277   0.3373909046843604   0.4385609924105357
   0.3006617167531588   0.4545568496928057   0.4393087557666436
   0.2423984718822169   0.5663259487729765   0.4371746375365702
   0.5752303174656437   0.2247995141929913   0.5596915129426818
   0.5000000291375880   0.3421813630508092   0.6038696466233602
   0.4361150983822099   0.4600914164427694   0.5983244286673484
   0.3729716642034087   0.5783994360419145   0.6054814483912714
   0.3162263888387196   0.7072729404479035   0.5630746729815139
   0.6355038958601263   0.3366235409977572   0.5603285856668960
   0.5638849003424079   0.4600914164427694   0.5983244286673484
   0.5000000291375880   0.5788252542255686   0.5992501812613915
   0.4364382257793830   0.7073471126236132   0.5635246229851760
   0.6992579621171539   0.4552745231833389   0.5610759198984405
   0.6270283047057986   0.5783994360419145   0.6054814483912714
   0.5635617729452348   0.7073471126236132   0.5635246229851760
   0.7593656312899314   0.5672533165448708   0.5615880269880693
   0.6837736396611775   0.7072729404479035   0.5630746729815139
   0.4247696812589741   0.2247995141929913   0.5596915129426818
   0.3644960730490735   0.3366235409977572   0.5603285856668960
   0.3007420067920534   0.4552745231833389   0.5610759198984405
   0.2406343673945477   0.5672533165448708   0.5615880269880693
