MXY                                  
   1.00000000000000     
    28.1499996185000008    0.0000000000000000    0.0000000000000000
     0.0000000000000000   26.9009990692000009    0.0000000000000000
     0.0000000000000000    0.0000000000000000   15.2419996262000002
   M    X    Y 
   15   21   21
Direct
   0.2739667544335220   0.3655628531065750   0.4802623611151804
   0.3883258145267503   0.3663862608843457   0.4998934565126701
   0.3343420061351273   0.4659490106141352   0.5038172834663557
   0.4997562513263605   0.3647385346045522   0.5022716728765100
   0.4448264294523792   0.4665098567146388   0.5035463621173090
   0.3880800819197685   0.5678621334633488   0.5014648799273282
   0.6110482861897769   0.3667493595766564   0.5030122748938689
   0.5555253458560954   0.4666153972524677   0.5037702422844862
   0.5003263306212611   0.5669016682830531   0.5046318425405794
   0.4456672126634287   0.6674206600371273   0.5053693009681011
   0.7241688852526853   0.3622303549786854   0.4804898995035592
   0.6664814533741582   0.4654405708691245   0.5019308944457772
   0.6120768792311621   0.5674597660639988   0.5062239695952101
   0.5550500971541752   0.6679986107941550   0.5042445387152816
   0.4988686809614556   0.7723114372621873   0.4848419128303353
   0.2228875978543088   0.3084131779979925   0.4130933978601010
   0.3353268327406544   0.3196788915385346   0.4124923671554334
   0.2741337809124688   0.4378693817972891   0.4043954893096015
   0.4441869675364858   0.3305883946029774   0.4015052327112161
   0.3891168354382624   0.4335094094842637   0.3980848420776250
   0.3320674597799493   0.5349709619179213   0.4033504050764546
   0.5553176809861449   0.3305583776155015   0.4030381089335203
   0.5001472925909142   0.4326977164170657   0.3994560351092029
   0.4448068568940389   0.5338479837628578   0.3999934660744371
   0.3878145870073947   0.6355104120624184   0.4039320769237338
   0.6644342250499341   0.3266512610335561   0.4033700937740138
   0.6110156845638073   0.4332300406760133   0.3985148164283463
   0.5566904743674200   0.5343754722878948   0.4008992181054176
   0.5005389397275551   0.6344696574931139   0.4003698317749372
   0.4395575698160765   0.7365445298879471   0.4069954188666365
   0.7970283048089568   0.3448453433622026   0.4129349631671683
   0.7319535676952976   0.4412187389235561   0.4148496668946978
   0.6691832108182894   0.5348360856539250   0.4059525270501387
   0.6139787055789212   0.6361312658259453   0.4078581842631246
   0.5680138644275774   0.7399037625911726   0.4184765823230455
   0.5212848365242593   0.8475438869870884   0.4195031845468952
   0.1957427114370711   0.3479684297036082   0.5172940019717768
   0.3200923868209678   0.3478528798190409   0.6064247963430643
   0.2829090020176848   0.4162839301624370   0.6120705199532829
   0.4422549988482432   0.3293968077285173   0.6003077456915793
   0.3906902684073030   0.4323588453116340   0.6065198294850338
   0.3307869801239256   0.5319699941481083   0.6031128001127621
   0.5579520159759535   0.3303748625480527   0.6026046612593813
   0.5000619951063855   0.4317984166184113   0.6069990249139936
   0.4432459059936981   0.5340634080379112   0.6071317639124499
   0.3888962465000141   0.6372156973386842   0.6038593242570485
   0.6774919148300284   0.3442173949321814   0.6116963299069996
   0.6102321105725625   0.4339507843669730   0.6070645835956995
   0.5558443400281449   0.5333504835727674   0.6086633259122681
   0.5008180220869941   0.6323687923545402   0.6087562460156813
   0.4604132804258985   0.7381701943839057   0.6151618202595900
   0.7777125529439691   0.2997726888253179   0.5161250729299742
   0.7156326910964623   0.4120833566367950   0.6077178384739971
   0.6696227852025286   0.5320369993031839   0.6041214798453874
   0.6116928959663237   0.6368363095975517   0.6056320836776107
   0.5356697992200796   0.7385752446356394   0.6112951840059515
   0.4742413121789257   0.8518232535504521   0.5226047672581677
