MX2                                  
   1.00000000000000     
    31.3799991608000006    0.0000000000000000    0.0000000000000000
     0.0000000000000000   28.7840003967000015    0.0000000000000000
     0.0000000000000000    0.0000000000000000   15.2419996262000002
   M    X   
   21   56   
Direct
  0.2678329124942753  0.2418482745284154  0.4873754698315961
  0.3687918023091485  0.2445039952840906  0.5208023950017915
  0.3200087693408898  0.3369523548969846  0.5192779722496328
  0.4658091675857675  0.2420414849976259  0.5381104839010105
  0.4203566789349907  0.3381075824581228  0.5321394234461406
  0.3668789828702455  0.4290640692152642  0.5356114478925025
  0.5733058697292555  0.2417536606413789  0.5396509522324280
  0.5194723451192672  0.3360149713003113  0.5364013434378446
  0.4685643339756649  0.4326011359277544  0.5350863644852525
  0.4207696683485648  0.5302657505368936  0.5360753361729710
  0.6700636056393902  0.2437263754453064  0.5248675518632832
  0.6186361145660587  0.3378010858541777  0.5348838932497044
  0.5707193660733773  0.4324356026076043  0.5367954138891735
  0.5197815029275797  0.5252397319536568  0.5331794464391276
  0.4711136792573541  0.6206376498995693  0.5203099566940391
  0.7720176959070093  0.2423998768365971  0.4954876431313500
  0.7188082975012656  0.3361732621941963  0.5252324358031982
  0.6721921742570717  0.4288784081335969  0.5397537992910465
  0.6186562497493555  0.5304213948149901  0.5392285926266123
  0.5688749742214793  0.6207826241618164  0.5225956903025726
  0.5192298400299001  0.7175360042762842  0.4890828172961508
  0.2037902697512142  0.2276718290167289  0.4127802380395590
  0.3228703903237633  0.2087506155153805  0.4151626605217030
  0.2625707644727002  0.3169956246288490  0.4266156980110552
  0.4201755403636944  0.2114108127692989  0.4268366563273398
  0.3726184256931583  0.3081328856886413  0.4222007181087830
  0.3203924009598075  0.4015363157147954  0.4237877232609668
  0.5196435744970934  0.1878420777219990  0.4820239824716394
  0.4708983860894591  0.3036089536833819  0.4318423216567710
  0.4188345510383508  0.4024276916456723  0.4305438006575236
  0.3512310400648632  0.5068103845236914  0.4781296051536471
  0.6190657951183740  0.2111483621811530  0.4290756197457608
  0.5686584337721484  0.3035014563309453  0.4333655121465372
  0.5200167107503947  0.4001873125323522  0.4345781500063798
  0.4679174000416795  0.4949111912028191  0.4309658999802575
  0.4200750678759294  0.5886231193072528  0.4244265298212535
  0.7154484794098045  0.1992503585547118  0.4342081709521456
  0.6667958864960846  0.3071703299499851  0.4262814139996550
  0.6210638918144770  0.4022184480712744  0.4334149552880842
  0.5722329406692491  0.4946892795820281  0.4328710473811456
  0.5207208607223262  0.5854487248049423  0.4234837436813443
  0.4663293017706702  0.6818866451370201  0.4145707739869906
  0.8160568918991223  0.1886449803003753  0.4236442874080983
  0.7709084072350982  0.3104237004709258  0.4215640219797311
  0.7195840417955368  0.4006190816542435  0.4295364178535777
  0.6883113477153745  0.5063594004711075  0.4820280524767537
  0.6206051391452940  0.5884004135216429  0.4281665373657066
  0.5822737015783422  0.6852010461521999  0.4307491693448490
  0.5401813099352822  0.7852034660641327  0.4151394622881522
  0.2177484677659545  0.1842719126722123  0.5162453000818100
  0.3064431651002688  0.2222382810951930  0.6216046991078482
  0.2731054565697927  0.2863855195009971  0.6176590993212555
  0.4149186433529793  0.2108462859392400  0.6310160371528738
  0.3682860662166177  0.3060116689195666  0.6284169385046575
  0.3168049655036889  0.3972529345047582  0.6300140840579254
  0.5192049905679273  0.1954616113523755  0.6165192432220413
  0.4686699456016674  0.3055829917820475  0.6392593345386696
  0.4185291070534082  0.4005109058406034  0.6378964616500485
  0.3566690222698387  0.5030689237143697  0.6127496576549029
  0.6232391487260891  0.2109878290401011  0.6354055004691659
  0.5695981790104783  0.3054080060192538  0.6405673387326559
  0.5191952969113224  0.4004461420506535  0.6379805728211689
  0.4690197600411619  0.4956070576156368  0.6384785858624336
  0.4203598774573499  0.5938562976472030  0.6287995374592520
  0.7332799333255043  0.2257873289509270  0.6251581218834760
  0.6698169511044880  0.3053718183128794  0.6326423066770653
  0.6199991423859074  0.4002525018021512  0.6408046845748392
  0.5696311186272454  0.4955056537787376  0.6401037141382134
  0.5193764344945956  0.5903772844890575  0.6298196534937969
  0.4833075140285796  0.6904980570809134  0.6218836422791055
  0.8427258040638634  0.2247841932634374  0.5264151642979413
  0.7672000077083765  0.2896027315408271  0.6283680549835233
  0.7221559033626198  0.3970881631511637  0.6341753208308785
  0.6824880370450062  0.5030272045440161  0.6166208239624870
  0.6176933132772721  0.5933340700788594  0.6344036793042056
  0.5509447457719785  0.6902634615285222  0.6204743592305091
  0.4975168018775086  0.7934446120654316  0.5164806543114251

