MXY                                 
   1.00000000000000     
    28.1499996185000008    0.0000000000000000    0.0000000000000000
     0.0000000000000000   25.8999996185000008    0.0000000000000000
     0.0000000000000000    0.0000000000000000   16.2420005797999991
   M    X    Y  
   15   25   25   
Direct
   0.5000000302554979   0.2285423679492316   0.5014958741830622
   0.4498776449736953   0.3256290913698059   0.4992721140527371
   0.3905738126366328   0.4313860809781626   0.4978863048857634
   0.3359677618992733   0.5400009161920755   0.4992613759118423
   0.2836382448391281   0.6356650355050452   0.5019699959691117
   0.5501223559280656   0.3256290913698059   0.4992721140527371
   0.5000000302554979   0.4287345116554117   0.4978902236414710
   0.4431615616915111   0.5357109764743480   0.4980928421710722
   0.3860702194700513   0.6344241638038468   0.4998549704812447
   0.6094261584960307   0.4313860809781626   0.4978863048857634
   0.5568384392457698   0.5357109764743480   0.4980928421710722
   0.5000000302554979   0.6373783070836850   0.4986405016227389
   0.6640322688426322   0.5400009161920755   0.4992613759118423
   0.6139297814672368   0.6344241638038468   0.4998549704812447
   0.7163617560626329   0.6356650355050452   0.5019699959691117
   0.5683101557784246   0.1868128257234861   0.4408852942177667
   0.5000000302554979   0.2888340975821936   0.3936796572528184
   0.4432160338117910   0.3941306225589712   0.3997987907206932
   0.3872612115708205   0.4995994726048398   0.3998365737614809
   0.3317731678180316   0.6058084827992332   0.3940488553831190
   0.2843552327589010   0.7210240205301662   0.4419087063690874
   0.6195817894532180   0.2813093781234912   0.4397320779335157
   0.5567839670899699   0.3941306225589712   0.3997987907206932
   0.5000000302554979   0.5001199541178337   0.4022046055436775
   0.4440184782888086   0.6066871861579751   0.4003321490882147
   0.3853662045808182   0.7220618434744209   0.4407118702806965
   0.6771796935339259   0.3886825497578316   0.4360472533716430
   0.6127387595618498   0.4995994726048398   0.3998365737614809
   0.5559815226484794   0.6066871861579751   0.4003321490882147
   0.5000000302554979   0.7226833887702279   0.4375045861435262
   0.7339492670237425   0.4968276382304373   0.4391768269469273
   0.6682268032791114   0.6058084827992332   0.3940488553831190
   0.6146337665163255   0.7220618434744209   0.4407118702806965
   0.7837950656032177   0.5924547527872882   0.4410178326678538
   0.7156447681428669   0.7210240205301662   0.4419087063690874
   0.4316898451588634   0.1868128257234861   0.4408852942177667
   0.3804182114840703   0.2813093781234912   0.4397320779335157
   0.3228203073678349   0.3886825497578316   0.4360472533716430
   0.2660507040734080   0.4968276382304373   0.4391768269469273
   0.2162048756893154   0.5924547527872882   0.4410178326678538
   0.5683303741758710   0.1881257136670437   0.5645355713625329
   0.5000000302554979   0.2907139687244480   0.6064171707491932
   0.4432750217922161   0.3949901455042257   0.5966636799690388
   0.3878425083409244   0.4991143871613120   0.5967368012634389
   0.3331618848332248   0.6044146078887600   0.6067355266607926
   0.2856266628270529   0.7199390227049227   0.5655649016631112
   0.6197140261184727   0.2824119727124677   0.5605324467147463
   0.5567249791095448   0.3949901455042257   0.5966636799690388
   0.5000000302554979   0.4999930479580112   0.5934307081756076
   0.4446208744905333   0.6058193386351477   0.5972105653453281
   0.3864477864881197   0.7214600704435364   0.5615025169792502
   0.6771946469105096   0.3888768853735184   0.5598062283831946
   0.6121574925608365   0.4991143871613120   0.5967368012634389
   0.5553791264467476   0.6058193386351477   0.5972105653453281
   0.5000000302554979   0.7222464648100984   0.5612780591459625
   0.7333461387629375   0.4958992341552496   0.5599628539184991
   0.6668381161040633   0.6044146078887600   0.6067355266607926
   0.6135521548044064   0.7214600704435364   0.5615025169792502
   0.7825491842127128   0.5911105303568158   0.5646443802982681
   0.7143733082700905   0.7199390227049227   0.5655649016631112
   0.4316696267614171   0.1881257136670437   0.5645355713625329
   0.3802859748188155   0.2824119727124677   0.5605324467147463
   0.3228053837958686   0.3888768853735184   0.5598062283831946
   0.2666538621743505   0.4958992341552496   0.5599628539184991
   0.2174507571153403   0.5911105303568158   0.5646443802982681
